VRPTWMS/instances/mip/fuel/5/N5-C_DV100-C_SV25_F5_12_No_1.log

Gurobi 6.0.2 (win64) logging started 06/12/15 15:22:21

Read LP format model from file C:\MT\repository\VRPTWMS\instances\mip\fuel\N5-C_DV100-C_SV25_F5_12_No_1.lp
Reading time = 0.01 seconds
(null): 186 rows, 103 columns, 698 nonzeros
Optimize a model with 186 rows, 103 columns and 698 nonzeros
Model has 150 quadratic constraints
WARNING: Only barrier available for SOCP models
Coefficient statistics:
  Matrix range    [1e+00, 1e+02]
  Objective range [2e+01, 1e+03]
  Bounds range    [1e+00, 1e+02]
  RHS range       [1e+00, 1e+02]
Presolve removed 18 rows and 7 columns
Presolve time: 0.02s
Presolved: 483 rows, 265 columns, 2211 nonzeros
Variable types: 146 continuous, 119 integer (91 binary)
Found heuristic solution: objective 5213.6000000
Optimize a model with 483 rows, 265 columns and 2211 nonzeros
Coefficient statistics:
  Matrix range    [1e+00, 1e+02]
  Objective range [2e+01, 1e+03]
  Bounds range    [1e+00, 1e+02]
  RHS range       [1e+00, 1e+02]
Presolve removed 55 rows and 41 columns
Presolved: 428 rows, 224 columns, 2000 nonzeros


Root relaxation: objective 1.335147e+02, 35 iterations, 0.00 seconds

    Nodes    |    Current Node    |     Objective Bounds      |     Work
 Expl Unexpl |  Obj  Depth IntInf | Incumbent    BestBd   Gap | It/Node Time

     0     0  133.51468    0   20 5213.60000  133.51468  97.4%     -    0s
     0     0 1140.87000    0    6 5213.60000 1140.87000  78.1%     -    0s
     0     0 1143.78000    0   16 5213.60000 1143.78000  78.1%     -    0s
     0     0 1143.78000    0   17 5213.60000 1143.78000  78.1%     -    0s
     0     0 1143.78000    0   12 5213.60000 1143.78000  78.1%     -    0s
     0     0 1143.78000    0   14 5213.60000 1143.78000  78.1%     -    0s
     0     0 1143.78000    0   15 5213.60000 1143.78000  78.1%     -    0s
     0     0 1143.78000    0   18 5213.60000 1143.78000  78.1%     -    0s
     0     0 1143.78000    0   14 5213.60000 1143.78000  78.1%     -    0s
     0     2 1143.78000    0   14 5213.60000 1143.78000  78.1%     -    0s
*   25    10              15    3315.7500000 1148.49997  65.4%  18.7    0s
*   28    10              15    3312.8100000 1148.49997  65.3%  17.8    0s
H   51    10                    3296.9700000 1148.49997  65.2%  16.2    0s
H   55    10                    3270.0600000 1148.49997  64.9%  15.5    0s
H  143    61                    2239.1300000 1149.71046  48.7%  15.3    0s
* 1011   232              15    2214.7000000 1200.30014  45.8%  16.4    0s

Cutting planes:
  Learned: 5
  Cover: 121
  Implied bound: 86
  Clique: 5
  MIR: 28
  Mod-K: 1

Explored 2078 nodes (33631 simplex iterations) in 0.67 seconds
Thread count was 2 (of 4 available processors)

Optimal solution found (tolerance 1.00e-04)
Best objective 2.214700000000e+03, best bound 2.214700000000e+03, gap 0.0%
k_c1	78.0
k_c2	94.0
k_c3	90.0
k_c4	85.0
k_c5	100.0
k_dN	-0.0
o_1	-0.0
o_2	-0.0
o_3	-0.0
o_4	-0.0
o_5	-0.0
p_1	0.0
p_2	1.0
p_3	0.0
p_4	1.0
p_5	-0.0
phi_c1	2.0
phi_c2	1.0
phi_c3	2.9999999999999996
phi_c4	-0.0
phi_c5	3.0
phi_dN	-0.0
pi_c1	-0.0
pi_c2	8.999999999999993
pi_c3	-0.0
pi_c4	4.999999999999993
pi_c5	-0.0
pi_dN	-0.0
tauD_c1	90.0
tauD_c2	16.0
tauD_c3	53.00000000000061
tauD_c4	71.0000000000007
tauD_c5	5.0
tauD_d0	-0.0
tauD_dN	100.0
tauS_c1	5.0
tauS_c2	10.0
tauS_c3	84.0
tauS_c4	36.0
tauS_c5	87.0
tauS_d0	-0.0
tauS_dN	88.00000000000036
x_c1_dN	1.0
x_c2_c3	1.0
x_c3_c4	1.0
x_c4_c1	1.0
x_c5_c2	1.0
x_d0_c5	1.0
z_c2_c4	1.0
z_c4_dN	0.9999999999999964
z_d0_c2	1.0
